<number of tasks>
50

<cycle time>
1000

<order strength>
0.203


<task times>
1 678
2 226
3 537
4 608
5 591
6 503
7 698
8 648
9 394
10 637
11 434
12 387
13 639
14 350
15 586
16 470
17 473
18 661
19 319
20 227
21 361
22 472
23 699
24 470
25 582
26 650
27 634
28 511
29 517
30 539
31 459
32 471
33 428
34 553
35 558
36 689
37 477
38 553
39 429
40 425
41 452
42 476
43 790
44 497
45 579
46 479
47 508
48 673
49 345
50 440

<precedence relations>
1,21
2,21
3,8
3,13
4,12
5,7
5,11
6,9
6,10
7,21
8,18
9,16
9,41
10,17
10,49
11,19
11,20
12,14
12,15
14,21
15,21
16,22
17,23
18,24
20,25
20,26
21,27
21,28
21,29
21,30
21,35
21,49
22,33
23,31
24,34
25,32
26,36
29,40
31,37
32,38
35,39
36,41
37,43
38,42
39,45
39,46
40,44
41,47
41,48
42,48
44,48
47,49
47,50

<end>
